60	12	4	26	
22	20	20	17

0	0	0	0	0	0	4	1	2	3	4
1	7	3	4	5	7	2	7	9
2	5	5	4	5	10	1	5
3	7	6	10	7	2	2	7	8
4	4	1	1	1	1	2	5	6
5	10	9	6	1	2	1	10
6	8	6	5	5	4	1	9
7	10	6	10	9	8	1	11
8	4	5	2	8	9	1	11
9	9	10	10	2	7	1	11
10	7	3	9	8	10	1	11
11	0	0	0	0	0	0
